ACTORES = {Actor0, Actor1, Actor2, Actor3, Actor4};
Escenas =[|1,0,0,0,0,0,1,1,2
		  |1,1,0,1,0,1,0,1,3
		  |1,0,1,0,0,0,0,0,3
		  |1,0,1,1,1,1,1,0,17
		  |0,1,1,0,0,1,1,1,13
		  |];
Duracion=[2, 1, 2, 4, 3, 3, 1, 4];